32	0

0	3	3	4	2
8	3	7	8	10
7	3	6	8	9
1	1	5
6	3	6	8	9
2	2	7	10
8	2	12	13
6	3	11	12	13
10	2	12	13
5	3	11	12	13
8	1	15
1	3	14	15	17
1	3	14	15	17
7	3	16	18	20
3	3	16	18	20
3	3	19	21	22
10	3	19	21	22
3	3	19	21	22
1	2	23	24
5	2	23	24
10	1	32
3	2	25	27
1	2	25	27
1	2	25	27
1	3	26	28	29
1	2	30	31
7	1	32
1	2	30	31
6	1	32
3	1	32
1	1	32
0	0
